# 1) Initialization
units lj
dimension 3
atom_style atomic
boundary p p p
# 2) System definition
region simulation_box block &
  -20.0 20.0 -20.0 20.0 -20.0 20.0 units box
create_box 2 simulation_box
# for creating atoms
region cylinder_in cylinder z 0 0 10 &
  INF INF side in
region cylinder_out cylinder z 0 0 10 &
  INF INF side out
create_atoms 1 random 1000 341341 cylinder_out
create_atoms 2 random 150 127569 cylinder_in
# 3) Settings
mass 1 1.0
mass 2 10.0
pair_style lj/cut 4.0
pair_coeff 1 1 1.0 1.0
pair_coeff 2 2 0.5 3.0
# 4) Visualization
thermo 10
thermo_style custom step etotal press
# 5) Run
minimize 1.0e-6 1.0e-6 1000 10000
# 6) Save status
write_data improved.min.data
